proyfinal/src/viki/013/experimentInOfficeAgust.take6.output/a75393a8-3733-4e27-be5e-e7ce2edd0b14.als.out
Reading from standard input... Use '--help' for help.
============================[ Problem Statistics ]=============================
|                                                                             |
|  Number of variables:         87638                                         |
|  Number of clauses:          161767                                         |
|  Parse time:                   0.03 s                                       |
|                                                                             |
============================[ Search Statistics ]==============================
| Conflicts |          ORIGINAL         |          LEARNT          | Progress |
|           |    Vars  Clauses Literals |    Limit  Clauses Lit/Cl |          |
===============================================================================
|       100 |   62881   107244   267325 |    39322      100     11 | 28.249 % |
|       250 |   56778   107244   267325 |    43255      248     17 | 35.213 % |
|       475 |   56589    88077   219962 |    47580      433     26 | 35.429 % |
|       812 |   56589    87318   218150 |    52338      759     38 | 35.429 % |
|      1318 |   56193    85738   214373 |    57572     1220     48 | 35.881 % |
|      2077 |   56133    85498   213805 |    63329     1975     51 | 35.949 % |
|      3216 |   56115    85424   213634 |    69662     3112     56 | 35.970 % |
|      4924 |   55921    84736   211969 |    76629     4776     54 | 36.191 % |
|      7486 |   55819    84137   210589 |    84291     7166     57 | 36.307 % |
|     11330 |   55789    84046   210367 |    92721    11000     59 | 36.342 % |
|     17096 |   55525    83160   208278 |   101993    16317     61 | 36.643 % |
===============================================================================
restarts              : 71
conflicts             : 20505          (9270 /sec)
decisions             : 68898          (0.00 % random) (31147 /sec)
propagations          : 22079870       (9981669 /sec)
conflict literals     : 1218380        (43.31 % deleted)
Memory used           : 33.57 MB
CPU time              : 2.21204 s

INDETERMINATE
